50
15797

218 919
855 500
382 569
297 211
255 571
112 378
636 698
708 524
637 664
266 803
732 14
892 952
232 692
678 752
114 128
54 429
625 881
404 744
310 968
185 12
969 312
865 837
450 481
816 299
813 563
274 364
967 302
522 578
152 884
867 266
726 657
244 650
454 206
210 279
719 43
551 365
932 859
148 651
773 917
443 114
841 475
289 716
263 185
720 264
990 568
101 107
341 969
692 833
6 857
95 556
